c .nnodes 80
c .nvars 345
c .nsuppvars 187
c .ids  0 1 2 3 4 5 6 7 8 9 10 11 12 13 14 15 16 17 18 19 20 21 22 23 24 25 26 27 28 29 30 31 32 33 34 35 36 37 38 39 40 41 42 43 44 45 46 47 48 49 50 51 52 53 54 55 56 57 58 59 60 61 62 63 64 65 66 67 68 69 70 71 72 73 74 75 76 77 78 79 80 81 82 83 84 85 86 87 88 89 90 91 92 93 94 95 96 97 98 99 100 101 102 103 104 105 106 107 108 109 110 111 112 113 114 115 116 117 118 119 120 121 122 123 124 125 126 127 128 129 130 131 132 133 134 135 136 137 138 139 140 141 142 143 144 145 146 147 148 149 150 151 152 153 154 155 156 157 158 159 160 161 162 163 164 165 166 167 168 169 170 171 172 173 174 175 176 177 178 179 180 181 182 183 184 185 186 
c .cnfids  660 639 661 640 653 634 642 654 659 662 635 643 665 638 655 657 658 663 664 647 652 562 636 637 645 667 701 702 644 646 631 632 633 641 648 656 666 593 529 594 575 531 684 573 602 530 628 534 537 556 565 569 536 627 532 533 555 559 519 538 670 558 535 552 590 554 669 674 705 521 671 703 589 668 693 557 571 675 539 542 672 673 685 567 540 544 676 522 686 694 677 630 526 695 687 525 524 523 678 545 560 528 520 688 696 541 543 679 549 625 550 689 527 548 697 680 564 563 566 588 619 620 626 623 690 561 621 617 698 570 587 618 622 624 572 585 583 580 582 586 681 579 581 553 574 568 584 551 592 614 699 682 691 596 613 604 700 683 629 605 597 615 692 598 591 606 546 610 608 611 599 609 612 600 595 616 603 601 607 576 578 577 649 651 650 704 547 
c .nroots 1
c .rootids 2
p cnf 864 2272
3 -4 -498 -501 -504 0
-3 504 0
-3 4 0
-3 501 0
-3 498 0
4 585 -5 85 -89 0
4 -585 -5 -85 -89 0
-4 89 0
-4 -585 85 0
-4 5 0
-4 585 -85 0
5 -575 576 -6 82 0
5 575 -576 6 -82 0
5 575 576 6 82 0
5 -575 -576 -6 -82 0
-5 -575 6 0
-5 575 -6 0
-5 576 -82 0
-5 -576 82 0
6 7 8 0
-6 -7 0
-6 -8 0
7 543 629 0
7 541 -543 0
7 -520 543 0
-7 -541 -543 0
-7 520 543 -629 0
8 9 80 0
-8 -9 0
-8 -80 0
9 -10 79 0
-9 10 0
-9 -79 0
10 11 -50 0
-10 -11 0
-10 50 0
11 -626 28 0
11 -595 12 28 0
-11 -28 0
-11 626 -12 0
-11 595 626 0
12 13 -21 -22 -23 0
-12 -13 0
-12 23 0
-12 22 0
-12 21 0
13 -553 -14 0
13 553 14 0
-13 553 -14 0
-13 -553 14 0
14 -604 -15 0
-14 604 0
-14 15 0
15 -605 -16 0
-15 605 0
-15 16 0
16 -606 -17 0
-16 606 0
-16 17 0
17 -608 -18 0
-17 608 0
-17 18 0
18 -609 -19 0
-18 609 0
-18 19 0
19 -616 -20 0
-19 616 0
-19 20 0
20 -547 -607 0
-20 547 0
-20 607 0
21 605 -16 0
21 -605 16 0
-21 -605 -16 0
-21 605 16 0
22 608 -18 0
22 -608 18 0
-22 -608 -18 0
-22 608 18 0
23 592 -24 -26 0
23 -24 -25 -26 0
-23 26 0
-23 24 0
-23 -592 25 0
24 609 -19 0
24 -609 19 0
-24 -609 -19 0
-24 609 19 0
25 -607 -616 0
25 -547 -616 0
-25 616 0
-25 547 607 0
26 -591 -604 -606 -27 0
-26 27 0
-26 591 0
-26 606 0
-26 604 0
27 616 -20 0
27 -616 20 0
-27 -616 -20 0
-27 616 20 0
28 -29 -36 39 -40 0
-28 40 0
-28 29 0
-28 36 0
-28 -39 0
29 -566 -30 0
-29 566 0
-29 30 0
30 613 -31 0
30 -613 31 0
-30 -613 -31 0
-30 613 31 0
31 -615 -32 0
-31 615 0
-31 32 0
32 -610 -33 0
-32 610 0
-32 33 0
33 -611 -34 0
-33 611 0
-33 34 0
34 -612 -35 0
-34 612 0
-34 35 0
35 -547 -603 0
-35 547 0
-35 603 0
36 -563 37 0
-36 563 0
-36 -37 0
37 -614 -38 0
-37 614 0
-37 38 0
38 -613 -31 0
-38 613 0
-38 31 0
39 614 38 0
-39 -614 0
-39 -38 0
40 -41 42 -46 -47 0
-40 47 0
-40 41 0
-40 46 0
-40 -42 0
41 615 -32 0
41 -615 32 0
-41 -615 -32 0
-41 615 32 0
42 43 45 0
42 587 43 0
42 612 43 0
-42 -43 0
-42 -587 -612 -45 0
43 -588 -44 0
-43 588 0
-43 44 0
44 612 -35 0
44 -612 35 0
-44 -612 -35 0
-44 612 35 0
45 547 -603 0
45 -547 603 0
-45 -547 -603 0
-45 547 603 0
46 611 -34 0
46 -611 34 0
-46 -611 -34 0
-46 611 34 0
47 -561 -570 -48 -49 0
-47 49 0
-47 561 0
-47 48 0
-47 570 0
48 -572 -574 -610 626 0
-48 610 0
-48 -626 0
-48 572 0
-48 574 0
49 -564 -568 0
-49 564 0
-49 568 0
50 548 549 -51 0
50 548 549 595 0
-50 -548 0
-50 -549 0
-50 -595 51 0
51 620 -52 -56 -69 0
51 -620 52 -56 -69 0
-51 69 0
-51 620 52 0
-51 56 0
-51 -620 -52 0
52 582 55 0
52 582 598 53 0
52 582 -598 -53 0
-52 -582 0
-52 -598 53 -55 0
-52 598 -53 -55 0
53 -599 -600 -54 0
-53 599 0
-53 600 0
-53 54 0
54 -547 -577 -601 0
-54 547 0
-54 577 0
-54 601 0
55 576 -578 0
-55 -576 0
-55 578 0
56 622 -57 -58 0
56 -622 57 -58 0
-56 58 0
-56 622 57 0
-56 -622 -57 0
57 584 55 0
57 584 600 54 0
57 584 -600 -54 0
-57 -584 0
-57 -600 54 -55 0
-57 600 -54 -55 0
58 -621 59 -62 65 0
58 621 -59 -62 65 0
-58 -65 0
-58 621 59 0
-58 62 0
-58 -621 -59 0
59 600 -61 0
59 -53 -61 0
59 60 -61 0
-59 61 0
-59 -600 53 -60 0
60 -54 -55 0
-60 54 0
-60 55 0
61 583 599 0
61 583 55 0
61 583 -53 0
-61 -583 0
-61 -599 53 -55 0
62 623 -63 0
62 -623 63 0
-62 -623 -63 0
-62 623 63 0
63 585 55 0
63 585 601 64 0
63 585 -601 -64 0
-63 -585 0
-63 -601 64 -55 0
-63 601 -64 -55 0
64 -547 -577 0
-64 547 0
-64 577 0
65 -624 -66 0
65 624 66 0
-65 624 -66 0
-65 -624 66 0
66 55 -67 0
66 -547 -577 -67 0
66 547 577 -67 0
-66 67 0
-66 547 -577 -55 0
-66 -547 577 -55 0
67 -578 586 0
67 586 -68 0
67 -576 586 0
-67 -586 0
-67 576 578 68 0
68 -546 -629 0
68 546 629 0
-68 546 -629 0
-68 -546 629 0
69 619 -12 -70 -72 0
69 -619 -12 70 -72 0
-69 72 0
-69 -619 -70 0
-69 12 0
-69 619 70 0
70 581 55 0
70 581 597 71 0
70 581 -597 -71 0
-70 -581 0
-70 -597 71 -55 0
-70 597 -71 -55 0
71 -598 -53 0
-71 598 0
-71 53 0
72 -617 618 73 -77 0
72 617 618 -73 -77 0
72 617 -618 -73 77 0
72 -617 -618 73 77 0
-72 -617 -73 0
-72 617 73 0
-72 618 77 0
-72 -618 -77 0
73 55 -75 0
73 551 -75 0
73 -74 -75 0
-73 75 0
-73 -551 -55 74 0
74 -596 -597 -71 0
-74 596 0
-74 597 0
-74 71 0
75 579 76 0
75 -551 579 0
75 579 596 0
-75 -579 0
-75 551 -596 -76 0
76 -597 -71 -55 0
-76 597 0
-76 71 0
-76 55 0
77 580 -596 78 0
77 580 596 76 0
-77 -580 0
-77 -596 -78 0
-77 596 -76 0
78 71 -55 0
78 597 -55 0
-78 55 0
-78 -597 -71 0
79 625 51 0
79 550 625 0
-79 -625 0
-79 -550 -51 0
80 50 -81 0
-80 -50 0
-80 81 0
81 -11 -79 0
-81 11 0
-81 79 0
82 8 -83 0
-82 -8 0
-82 83 0
83 -7 -84 0
83 7 84 0
-83 7 -84 0
-83 -7 84 0
84 547 630 0
84 -547 629 0
84 -526 547 0
-84 -547 -629 0
-84 526 547 -630 0
85 -82 86 0
-85 82 0
-85 -86 0
86 87 88 0
86 601 87 0
-86 -87 0
-86 -601 -88 0
87 -547 63 0
-87 547 0
-87 -63 0
88 527 547 0
-88 -527 0
-88 -547 0
89 -90 -95 -103 -106 0
-89 106 0
-89 90 0
-89 103 0
-89 95 0
90 588 91 92 -93 0
90 -588 -91 92 -93 0
-90 -92 0
-90 588 -91 0
-90 93 0
-90 -588 91 0
91 7 -8 0
-91 -7 0
-91 8 0
92 573 -574 0
92 -573 6 0
-92 -573 -6 0
-92 573 574 0
93 587 94 0
93 -572 -6 94 0
-93 -94 0
-93 -587 6 0
-93 572 -587 0
94 562 -564 0
94 -562 6 0
-94 -562 -6 0
-94 562 564 0
95 -578 8 96 -98 0
95 578 -8 96 -98 0
-95 98 0
-95 578 8 0
-95 -96 0
-95 -578 -8 0
96 568 -6 0
96 -6 97 0
96 564 -6 0
-96 6 0
-96 -564 -568 -97 0
97 -554 -558 -587 -590 0
-97 590 0
-97 554 0
-97 587 0
-97 558 0
98 -549 593 -99 102 0
98 549 -593 99 -102 0
98 549 593 99 102 0
98 -549 -593 -99 -102 0
-98 -549 99 0
-98 549 -99 0
-98 593 -102 0
-98 -593 102 0
99 100 -101 0
-99 -100 0
-99 101 0
100 -539 -542 0
100 519 542 -628 0
-100 542 628 0
-100 539 -542 0
-100 -519 542 0
101 11 50 -79 0
-101 79 0
-101 -50 0
-101 -11 0
102 -80 -83 0
-102 80 0
-102 83 0
103 591 -8 104 0
103 -592 8 104 0
-103 -104 0
-103 -591 -8 0
-103 592 8 0
104 594 -105 0
104 -594 105 0
-104 -594 -105 0
-104 594 105 0
105 -50 -81 0
-105 50 0
-105 81 0
106 560 80 -107 -108 0
106 -560 -80 -107 -108 0
-106 108 0
-106 -560 80 0
-106 107 0
-106 560 -80 0
107 -595 602 -81 0
107 595 -9 81 0
107 595 602 81 0
107 -595 -9 -81 0
-107 595 -81 0
-107 -595 81 0
-107 -602 9 0
108 -602 -109 497 0
108 9 -109 497 0
-108 109 0
-108 -497 0
-108 602 -9 0
109 649 -110 492 -494 0
109 -649 -110 492 494 0
-109 -492 0
-109 -649 -494 0
-109 110 0
-109 649 494 0
110 -111 459 467 -470 0
-110 470 0
-110 -467 0
-110 111 0
-110 -459 0
111 550 11 -112 -441 0
111 -550 -11 -112 -441 0
-111 441 0
-111 -550 11 0
-111 112 0
-111 550 -11 0
112 -113 -202 -213 -220 0
-112 220 0
-112 113 0
-112 213 0
-112 202 0
113 -114 -132 -141 -146 0
-113 146 0
-113 114 0
-113 141 0
-113 132 0
114 -695 -115 121 0
114 695 115 121 0
114 -695 -88 121 0
-114 -121 0
-114 695 -115 0
-114 -695 88 115 0
115 -547 116 0
-115 547 0
-115 -116 0
116 695 -118 0
116 -695 118 -119 0
116 -117 0
116 695 119 0
-116 -695 117 -118 0
-116 -695 117 119 0
-116 695 117 118 -119 0
117 -649 -651 0
117 650 651 0
117 649 -650 0
-117 -649 -650 651 0
-117 649 650 -651 0
118 -692 -704 0
118 692 704 0
-118 692 -704 0
-118 -692 704 0
119 -696 -697 -698 -120 0
-119 120 0
-119 696 0
-119 698 0
-119 697 0
120 -547 -699 -700 0
-120 547 0
-120 699 0
-120 700 0
121 -677 122 131 0
-121 677 0
-121 -131 0
-121 -122 0
122 -123 -125 0
-122 123 0
-122 125 0
123 -547 -124 0
-123 547 0
-123 124 0
124 704 117 0
-124 -704 0
-124 -117 0
125 677 -126 0
125 -677 126 0
-125 -677 -126 0
-125 677 126 0
126 -678 -127 0
-126 678 0
-126 127 0
127 -679 -128 0
-127 679 0
-127 128 0
128 -680 -129 0
-128 680 0
-128 129 0
129 -681 -682 -130 0
-129 681 0
-129 682 0
-129 130 0
130 -547 -683 0
-130 547 0
-130 683 0
131 525 547 0
-131 -525 0
-131 -547 0
132 -696 -133 -136 0
132 -88 -133 136 0
132 696 -133 136 0
-132 133 0
-132 696 -136 0
-132 -696 88 136 0
133 -605 122 0
133 -677 134 0
133 -605 -677 0
133 122 134 0
-133 605 -134 0
-133 677 -122 0
134 -21 -135 0
-134 21 0
-134 135 0
135 -547 -591 0
-135 547 0
-135 591 0
136 -547 -137 0
-136 547 0
-136 137 0
137 117 138 0
-137 -117 0
-137 -138 0
138 -696 -139 0
138 696 139 0
-138 696 -139 0
-138 -696 139 0
139 -697 -698 -140 0
-139 697 0
-139 698 0
-139 140 0
140 -547 -699 -700 118 0
-140 700 0
-140 -118 0
-140 547 0
-140 699 0
141 597 142 0
141 551 144 0
141 142 144 0
141 551 597 0
-141 -551 -142 0
-141 -597 -144 0
142 551 143 0
142 88 143 0
-142 -143 0
-142 -551 -88 0
143 -547 73 0
-143 547 0
-143 -73 0
144 597 145 0
144 88 145 0
-144 -145 0
-144 -597 -88 0
145 -547 70 0
-145 547 0
-145 -70 0
146 -147 -161 -177 -194 0
-146 194 0
-146 147 0
-146 177 0
-146 161 0
147 600 -148 160 0
147 -148 158 160 0
-147 148 0
-147 -160 0
-147 -600 -158 0
148 -698 149 -155 0
148 698 149 155 0
148 -698 -88 149 0
-148 -149 0
-148 698 -155 0
-148 -698 88 155 0
149 643 151 0
149 -643 150 -151 0
-149 -643 -150 0
-149 643 -151 0
-149 -643 151 0
150 524 595 0
-150 -524 0
-150 -595 0
151 595 153 0
151 152 153 0
151 571 153 0
-151 -153 0
-151 -571 -595 -152 0
152 610 -33 0
152 -610 33 0
-152 -610 -33 0
-152 610 33 0
153 557 -22 -154 0
-153 154 0
-153 22 0
-153 -557 0
154 -560 -595 0
-154 560 0
-154 595 0
155 -547 -156 0
-155 547 0
-155 156 0
156 117 -157 0
-156 -117 0
-156 157 0
157 698 -140 0
157 -698 140 0
-157 -698 -140 0
-157 698 140 0
158 600 159 0
158 88 159 0
-158 -159 0
-158 -600 -88 0
159 -547 57 0
-159 547 0
-159 -57 0
160 -605 131 134 0
-160 605 0
-160 -134 0
-160 -131 0
161 162 -163 -170 0
161 135 -163 -170 0
-161 170 0
-161 163 0
-161 -162 -135 0
162 553 -14 0
-162 -553 0
-162 14 0
163 164 165 -169 0
163 -689 164 -165 0
163 689 164 165 0
-163 -164 0
-163 689 -165 0
-163 -689 165 169 0
164 -123 -127 0
164 -678 123 131 0
-164 -123 127 0
-164 678 123 0
-164 123 -131 0
165 -547 -166 0
-165 547 0
-165 166 0
166 689 -167 -168 0
166 -689 -167 168 0
-166 167 0
-166 -689 -168 0
-166 689 168 0
167 -704 117 0
-167 704 0
-167 -117 0
168 -547 -690 -691 0
-168 547 0
-168 690 0
-168 691 0
169 528 547 0
-169 -528 0
-169 -547 0
170 -700 171 0
170 -598 172 0
170 -598 -700 0
170 171 172 0
-170 700 -172 0
-170 598 -171 0
171 -547 52 0
-171 547 0
-171 -52 0
172 -547 -173 0
-172 547 0
-172 173 0
173 174 -175 0
173 547 -700 -175 0
173 -547 700 -175 0
-173 175 0
-173 547 700 -174 0
-173 -547 -700 -174 0
174 117 118 0
-174 -117 0
-174 -118 0
175 117 118 0
175 -117 176 0
175 -700 117 0
-175 -117 -176 0
-175 700 117 -118 0
176 -546 -704 0
176 546 704 0
-176 546 -704 0
-176 -546 704 0
177 -687 -178 188 0
177 -178 188 191 0
-177 178 0
-177 -188 0
-177 687 -191 0
178 -88 179 0
178 -172 179 0
178 700 179 0
-178 -179 0
-178 -700 88 172 0
179 -664 180 187 0
-179 664 0
-179 -187 0
-179 -180 0
180 -181 -185 0
180 -181 -182 -184 0
-180 181 0
-180 182 185 0
-180 184 185 0
181 -650 651 0
-181 650 0
-181 -651 0
182 704 -183 0
-182 -704 0
-182 183 0
183 -649 -181 0
-183 649 0
-183 181 0
184 680 -129 0
184 -680 129 0
-184 -680 -129 0
-184 680 129 0
185 688 -167 -186 0
185 -688 -167 186 0
-185 167 0
-185 -688 -186 0
-185 688 186 0
186 -689 -168 0
-186 689 0
-186 168 0
187 524 181 0
-187 -524 0
-187 -181 0
188 665 -189 0
188 -665 187 189 0
-188 -187 189 0
-188 -665 -189 0
-188 665 189 0
189 -181 -166 0
189 -181 -182 -190 0
-189 181 0
-189 166 190 0
-189 166 182 0
190 -681 682 0
190 681 -682 -130 0
190 -681 130 0
-190 681 130 0
-190 681 682 0
-190 -681 -682 -130 0
191 -547 -192 0
-191 547 0
-191 192 0
192 687 -167 -193 0
192 -687 -167 193 0
-192 167 0
-192 -687 -193 0
-192 687 193 0
193 -688 -186 0
-193 688 0
-193 186 0
194 599 -195 197 0
194 -195 197 200 0
-194 195 0
-194 -197 0
-194 -599 -200 0
195 -169 196 0
195 -191 196 0
195 687 196 0
-195 -196 0
-195 -687 169 191 0
196 664 -180 0
-196 -664 0
-196 180 0
197 635 -198 0
197 -635 198 199 0
-197 -635 -198 0
-197 198 -199 0
-197 635 198 0
198 -595 59 0
-198 595 0
-198 -59 0
199 523 595 0
-199 -523 0
-199 -595 0
200 599 201 0
200 88 201 0
-200 -201 0
-200 -599 -88 0
201 -547 59 0
-201 547 0
-201 -59 0
202 203 205 -206 0
202 596 205 -206 0
-202 206 0
-202 -205 0
-202 -596 -203 0
203 596 204 0
203 88 204 0
-203 -204 0
-203 -596 -88 0
204 -547 77 0
-204 547 0
-204 -77 0
205 -553 131 135 0
205 -553 -14 131 0
-205 553 0
-205 -131 0
-205 14 -135 0
206 -187 211 0
206 -207 211 0
206 662 211 0
-206 -211 0
-206 -662 187 207 0
207 -181 -208 0
207 -181 -210 0
-207 181 0
-207 208 210 0
208 686 -167 -209 0
208 -686 -167 209 0
-208 167 0
-208 -686 -209 0
-208 686 209 0
209 -687 -193 0
-209 687 0
-209 193 0
210 678 -127 -182 0
210 -678 127 -182 0
-210 182 0
-210 678 127 0
-210 -678 -127 0
211 563 -37 -212 0
211 -563 169 212 0
211 -37 169 -212 0
-211 37 -212 0
-211 563 212 0
-211 -563 -169 0
212 -547 -561 0
-212 547 0
-212 561 0
213 -685 -214 -217 0
213 -169 -214 217 0
213 685 -214 217 0
-213 214 0
-213 685 -217 0
-213 -685 169 217 0
214 -686 215 -216 0
214 686 215 216 0
214 -686 -169 215 0
-214 -215 0
-214 686 -216 0
-214 -686 169 216 0
215 662 -207 0
-215 -662 0
-215 207 0
216 -547 -208 0
-216 547 0
-216 208 0
217 -547 -218 0
-217 547 0
-217 218 0
218 685 -167 -219 0
218 -685 -167 219 0
-218 167 0
-218 -685 -219 0
-218 685 219 0
219 -686 -209 0
-219 686 0
-219 209 0
220 -221 -244 -250 -257 0
-220 257 0
-220 221 0
-220 250 0
-220 244 0
221 -222 -227 -234 -242 0
-221 242 0
-221 222 0
-221 234 0
-221 227 0
222 -187 223 0
222 223 -225 0
222 663 223 0
-222 -223 0
-222 -663 187 225 0
223 -632 199 224 0
-223 632 0
-223 -224 0
-223 -199 0
224 -595 77 0
-224 595 0
-224 -77 0
225 -181 -192 0
225 -181 -182 -226 0
-225 181 0
-225 192 226 0
-225 182 192 0
226 679 -128 0
226 -679 128 0
-226 -679 -128 0
-226 679 128 0
227 228 232 -233 0
227 -659 228 -232 0
227 659 228 232 0
-227 -228 0
-227 659 -232 0
-227 -659 232 233 0
228 642 229 0
228 -642 150 -229 0
-228 -642 -150 0
-228 642 -229 0
-228 -642 229 0
229 595 230 0
229 41 230 0
229 569 230 0
-229 -230 0
-229 -569 -595 -41 0
230 556 -154 -231 0
-230 231 0
-230 154 0
-230 -556 0
231 606 -17 0
231 -606 17 0
-231 -606 -17 0
-231 606 17 0
232 -181 -173 0
-232 181 0
-232 173 0
233 523 181 0
-233 -523 0
-233 -181 0
234 -88 235 0
234 235 -240 0
234 694 235 0
-234 -235 0
-234 -694 88 240 0
235 652 -236 0
-235 -652 0
-235 236 0
236 -181 -237 0
-236 181 0
-236 237 0
237 -693 117 -118 0
237 -693 117 238 0
237 693 117 118 -238 0
-237 693 -118 0
-237 -693 118 -238 0
-237 -117 0
-237 693 238 0
238 -694 -239 0
-238 694 0
-238 239 0
239 -695 -119 0
-239 695 0
-239 119 0
240 -547 241 0
-240 547 0
-240 -241 0
241 694 -118 0
241 -694 118 -239 0
241 -117 0
241 694 239 0
-241 -694 117 -118 0
-241 -694 117 239 0
-241 694 117 118 -239 0
242 -88 243 0
242 -693 -243 0
242 693 243 0
-242 693 -243 0
-242 -693 88 243 0
243 -547 -237 0
-243 547 0
-243 237 0
244 -631 -245 247 0
244 -245 247 249 0
-244 245 0
-244 -247 0
-244 631 -249 0
245 -663 246 0
245 225 246 0
-245 -246 0
-245 663 -225 0
246 -604 131 135 0
246 -604 -15 131 0
-246 604 0
-246 -131 0
-246 15 -135 0
247 -676 123 131 0
247 -676 -248 131 0
-247 676 0
-247 -131 0
-247 -123 248 0
248 -677 -126 0
-248 677 0
-248 126 0
249 -595 73 0
-249 595 0
-249 -73 0
250 251 252 -253 0
250 -633 251 -253 0
-250 253 0
-250 -251 0
-250 633 -252 0
251 604 -15 -135 0
-251 135 0
-251 15 0
-251 -604 0
252 -595 70 0
-252 595 0
-252 -70 0
253 -641 254 0
253 598 -255 0
253 598 -641 0
253 254 -255 0
-253 641 255 0
-253 -598 -254 0
254 598 171 0
254 88 171 0
-254 -171 0
-254 -598 -88 0
255 595 256 0
255 30 256 0
255 567 256 0
-255 -256 0
-255 -567 -595 -30 0
256 555 -21 -154 0
-256 154 0
-256 21 0
-256 -555 0
257 -258 -295 -423 -429 0
-257 429 0
-257 258 0
-257 423 0
-257 295 0
258 -259 -271 -283 -289 0
-258 289 0
-258 259 0
-258 283 0
-258 271 0
259 201 260 -262 0
259 -599 260 -262 0
-259 262 0
-259 -260 0
-259 599 -201 0
260 -615 169 261 0
-260 615 0
-260 -261 0
-260 -169 0
261 -547 -568 -41 0
-261 547 0
-261 568 0
-261 41 0
262 -187 263 0
262 263 -266 0
262 666 263 0
-262 -263 0
-262 -666 187 266 0
263 -644 150 264 0
-263 644 0
-263 -264 0
-263 -150 0
264 -595 -265 0
264 -573 -595 -46 0
-264 595 0
-264 46 265 0
-264 573 265 0
265 558 -560 -24 0
-265 24 0
-265 560 0
-265 -558 0
266 -181 -267 0
266 -181 -270 0
-266 181 0
-266 267 270 0
267 -167 -268 0
-267 167 0
-267 268 0
268 690 -269 0
268 -690 269 0
-268 -690 -269 0
-268 690 269 0
269 -547 -691 0
-269 547 0
-269 691 0
270 682 -130 -182 0
270 -682 130 -182 0
-270 182 0
-270 682 130 0
-270 -682 -130 0
271 272 276 -278 0
271 -699 276 -278 0
-271 278 0
-271 -276 0
-271 699 -272 0
272 -547 -273 0
-272 547 0
-272 273 0
273 117 -274 0
-273 -117 0
-273 274 0
274 -699 -118 0
274 -699 275 0
274 699 118 -275 0
-274 699 -118 0
-274 699 275 0
-274 -699 118 -275 0
275 -547 -700 0
-275 547 0
-275 700 0
276 -636 199 277 0
-276 636 0
-276 -277 0
-276 -199 0
277 -595 57 0
-277 595 0
-277 -57 0
278 -88 279 0
278 279 -281 0
278 697 279 0
-278 -279 0
-278 -697 88 281 0
279 657 -280 0
279 -657 233 280 0
-279 -233 280 0
-279 -657 -280 0
-279 657 280 0
280 -183 -157 0
-280 183 0
-280 157 0
281 -547 -282 0
-281 547 0
-281 282 0
282 -697 698 117 0
282 -697 117 140 0
282 697 -698 117 -140 0
-282 697 698 0
-282 697 140 0
-282 -117 0
-282 -697 -698 -140 0
283 86 -284 287 0
283 601 -284 287 0
-283 284 0
-283 -287 0
-283 -601 -86 0
284 577 261 0
284 -615 285 0
284 577 -615 0
284 261 285 0
-284 -577 -285 0
-284 615 -261 0
285 577 286 0
285 88 286 0
-285 -286 0
-285 -577 -88 0
286 -547 66 0
-286 547 0
-286 -66 0
287 -656 233 288 0
-287 656 0
-287 -288 0
-287 -233 0
288 -181 -282 0
-288 181 0
-288 282 0
289 -636 -290 293 0
289 277 -290 293 0
-289 290 0
-289 -293 0
-289 636 -277 0
290 -638 -291 292 0
290 638 291 292 0
290 -638 -199 292 0
-290 -292 0
-290 638 -291 0
-290 -638 199 291 0
291 -595 66 0
-291 595 0
-291 -66 0
292 -606 131 135 0
292 -606 -17 131 0
-292 606 0
-292 -131 0
-292 17 -135 0
293 658 -294 0
293 -658 233 294 0
-293 -233 294 0
-293 -658 -294 0
-293 658 294 0
294 -183 -274 0
-294 183 0
-294 274 0
295 -296 -319 -397 -403 0
-295 403 0
-295 296 0
-295 397 0
-295 319 0
296 -297 -309 -314 -316 0
-296 316 0
-296 297 0
-296 314 0
-296 309 0
297 -298 -300 -304 -306 0
-297 306 0
-297 298 0
-297 304 0
-297 300 0
298 -637 87 0
298 -601 299 0
298 -601 -637 0
298 87 299 0
-298 637 -299 0
-298 601 -87 0
299 -595 63 0
-299 595 0
-299 -63 0
300 -679 301 0
300 -646 303 0
300 -646 -679 0
300 301 303 0
-300 679 -303 0
-300 646 -301 0
301 -595 -302 0
301 -589 -595 -45 0
-301 595 0
-301 45 302 0
-301 589 302 0
302 560 590 0
302 547 590 -607 0
302 -547 590 607 0
-302 -590 0
-302 -547 -560 -607 0
-302 547 -560 607 0
303 -123 -226 0
-303 123 0
-303 226 0
304 -169 305 0
304 -610 -305 0
304 610 305 0
-304 610 -305 0
-304 -610 169 305 0
305 -547 -570 -152 0
-305 547 0
-305 570 0
-305 152 0
306 -199 307 0
306 -299 307 0
306 637 307 0
-306 -307 0
-306 -637 199 299 0
307 647 -308 0
307 -529 -647 308 0
307 -547 -647 308 0
-307 647 308 0
-307 -647 -308 0
-307 529 547 308 0
308 -547 -593 0
308 -547 -594 -68 0
-308 547 0
-308 593 68 0
-308 593 594 0
309 -690 -169 -311 0
309 690 310 -311 0
309 -690 -310 -311 0
-309 311 0
-309 690 -310 0
-309 -690 169 310 0
310 -547 -267 0
-310 547 0
-310 267 0
311 -131 312 0
311 -303 312 0
311 679 312 0
-311 -312 0
-311 -679 131 303 0
312 -680 131 313 0
-312 680 0
-312 -313 0
-312 -131 0
313 -123 -184 0
-313 123 0
-313 184 0
314 -150 315 0
314 -301 315 0
314 646 315 0
-314 -315 0
-314 -646 150 301 0
315 -682 -683 131 0
315 -682 123 131 0
-315 682 0
-315 -131 0
-315 683 -123 0
316 -131 317 0
316 317 -318 0
316 608 317 0
-316 -317 0
-316 -608 131 318 0
317 609 -19 -135 0
317 -609 131 135 0
317 -19 131 -135 0
-317 19 -135 0
-317 609 135 0
-317 -609 -131 0
318 -22 -135 0
-318 22 0
-318 135 0
319 -644 -320 -389 0
319 264 -320 -389 0
-319 389 0
-319 320 0
-319 644 -264 0
320 -321 -333 -368 -375 0
-320 375 0
-320 321 0
-320 368 0
-320 333 0
321 -611 -322 -332 0
321 -169 -322 332 0
321 611 -322 332 0
-321 322 0
-321 611 -332 0
-321 -611 169 332 0
322 683 -324 0
322 -131 -324 0
322 -323 -324 0
-322 324 0
-322 -683 131 323 0
323 -547 704 -117 0
323 -547 683 704 0
-323 547 0
-323 -704 0
-323 -683 117 0
324 325 326 -329 0
324 -603 326 -329 0
-324 329 0
-324 -326 0
-324 603 -325 0
325 -547 -588 0
325 -547 -587 603 0
-325 547 0
-325 588 -603 0
-325 587 588 0
326 627 -327 0
326 -627 -328 0
-326 -627 328 0
-326 627 327 0
327 -540 -544 0
-327 540 0
-327 544 0
328 -521 544 0
328 540 -544 0
-328 -540 -544 0
-328 521 544 0
329 -169 330 0
329 -325 330 0
329 603 330 0
-329 -330 0
-329 -603 169 325 0
330 648 -331 0
330 -530 -648 331 0
330 -547 -648 331 0
-330 648 331 0
-330 -648 -331 0
-330 530 547 331 0
331 -546 -547 0
331 -547 -602 0
-331 547 0
-331 546 602 0
332 -547 -572 -46 0
-332 547 0
-332 572 0
-332 46 0
333 -334 -343 -354 -361 0
-333 361 0
-333 334 0
-333 354 0
-333 343 0
334 620 -335 341 0
334 -335 341 342 0
-334 335 0
-334 -341 0
-334 -620 -342 0
335 -691 -336 -340 0
335 -336 339 -340 0
-335 340 0
-335 336 0
-335 691 -339 0
336 572 337 -338 0
336 -571 337 -338 0
-336 338 0
-336 -337 0
-336 571 -572 0
337 557 -558 0
-337 -557 0
-337 558 0
338 -567 590 0
338 568 -589 0
338 568 590 0
338 -567 -589 0
-338 567 -568 0
-338 589 -590 0
339 -547 -704 0
-339 547 0
-339 704 0
340 548 -552 626 0
340 548 554 626 0
-340 -548 0
-340 -626 0
-340 552 -554 0
341 -522 545 -670 0
341 533 -545 -670 0
-341 670 0
-341 -533 -545 0
-341 522 545 0
342 -522 545 0
342 534 -545 0
-342 -534 -545 0
-342 522 545 0
343 -344 -346 -349 -352 0
-343 352 0
-343 344 0
-343 349 0
-343 346 0
344 607 -670 0
344 135 345 0
344 -670 135 0
344 607 345 0
-344 670 -345 0
-344 -607 -135 0
345 -533 -545 0
-345 533 0
-345 545 0
346 -624 347 0
346 -703 348 0
346 -624 -703 0
346 347 348 0
-346 624 -348 0
-346 703 -347 0
347 -539 -542 0
-347 539 0
-347 542 0
348 -538 -545 0
-348 538 0
-348 545 0
349 -674 350 0
349 -683 351 0
349 -674 -683 0
349 350 351 0
-349 674 -351 0
-349 683 -350 0
350 -547 704 0
-350 547 0
-350 -704 0
351 -537 -545 0
-351 537 0
-351 545 0
352 547 -623 0
352 353 351 0
352 -623 353 0
352 547 351 0
-352 623 -351 0
-352 -547 -353 0
353 692 -704 0
-353 -692 0
-353 704 0
354 355 356 -359 0
354 623 356 -359 0
-354 359 0
-354 -356 0
-354 -623 -355 0
355 -522 545 0
355 537 -545 0
-355 -537 -545 0
-355 522 545 0
356 -629 357 358 0
356 -704 357 358 0
-356 -358 0
-356 -357 0
-356 629 704 0
357 -541 -543 0
-357 541 0
-357 543 0
358 520 543 0
-358 -520 0
-358 -543 0
359 671 360 0
359 619 342 0
359 360 342 0
359 619 671 0
-359 -619 -360 0
-359 -671 -342 0
360 -522 545 0
360 533 -545 0
-360 -533 -545 0
-360 522 545 0
361 355 362 -365 0
361 674 362 -365 0
-361 365 0
-361 -362 0
-361 -674 -355 0
362 -617 363 364 0
362 -668 363 364 0
-362 -364 0
-362 -363 0
-362 617 668 0
363 522 545 0
-363 -522 0
-363 -545 0
364 -531 -545 0
-364 531 0
-364 545 0
365 669 366 0
365 621 367 0
365 366 367 0
365 621 669 0
-365 -621 -366 0
-365 -669 -367 0
366 -522 545 0
366 535 -545 0
-366 -535 -545 0
-366 522 545 0
367 -522 545 0
367 532 -545 0
-367 -532 -545 0
-367 522 545 0
368 369 370 -371 0
368 7 370 -371 0
-368 371 0
-368 -370 0
-368 -7 -369 0
369 591 -592 0
-369 -591 0
-369 592 0
370 -630 -84 0
-370 630 0
-370 84 0
371 628 347 373 0
371 -628 372 373 0
-371 -373 0
-371 628 -347 0
-371 -628 -372 0
372 -519 542 0
372 539 -542 0
-372 -539 -542 0
-372 519 542 0
373 -607 -374 0
373 -547 369 -374 0
-373 374 0
-373 607 -369 0
-373 547 607 0
374 -592 131 0
374 20 131 0
-374 -131 0
-374 592 -20 0
375 -376 -380 -382 -384 0
-375 384 0
-375 376 0
-375 382 0
-375 380 0
376 35 -377 379 0
376 574 -377 379 0
-376 377 0
-376 -379 0
-376 -574 -35 0
377 357 378 0
377 -629 -704 378 0
-377 -378 0
-377 704 -357 0
-377 629 -357 0
378 -532 -545 669 0
378 -532 -545 618 0
-378 532 0
-378 545 0
-378 -618 -669 0
379 -536 -545 673 0
379 -536 -545 622 0
-379 536 0
-379 545 0
-379 -622 -673 0
380 545 381 0
380 -621 381 0
380 535 381 0
-380 -381 0
-380 -535 -545 621 0
381 -534 -545 671 0
381 -534 -545 620 0
-381 534 0
-381 545 0
-381 -620 -671 0
382 545 383 0
382 -675 383 0
382 538 383 0
-382 -383 0
-382 -538 -545 675 0
383 -531 -545 668 0
383 -531 -545 617 0
-383 531 0
-383 545 0
-383 -617 -668 0
384 -7 -385 -388 0
384 -369 -385 -388 0
-384 388 0
-384 385 0
-384 7 369 0
385 -672 386 0
385 -630 387 0
385 -630 -672 0
385 386 387 0
-385 672 -387 0
-385 630 -386 0
386 -547 -629 0
-386 547 0
-386 629 0
387 -535 -545 0
-387 535 0
-387 545 0
388 -619 327 0
388 -705 345 0
388 -619 -705 0
388 327 345 0
-388 619 -345 0
-388 705 -327 0
389 -701 -392 396 0
389 390 -392 396 0
-389 392 0
-389 -396 0
-389 701 -390 0
390 -649 -118 -391 0
390 649 -176 -391 0
-390 391 0
-390 -649 118 0
-390 649 176 0
391 -547 -181 0
-391 547 0
-391 181 0
392 -645 393 0
392 393 -394 0
-392 -393 0
-392 645 394 0
393 -529 -701 390 0
393 -547 -701 390 0
-393 701 0
-393 -390 0
-393 529 547 0
394 595 395 0
394 44 395 0
394 575 395 0
-394 -395 0
-394 -575 -595 -44 0
395 559 -27 -154 0
-395 154 0
-395 27 0
-395 -559 0
396 -645 150 -394 0
-396 645 0
-396 -150 0
-396 394 0
397 286 398 -402 0
397 -577 398 -402 0
-397 402 0
-397 -398 0
-397 577 -286 0
398 667 -399 0
-398 -667 0
-398 399 0
399 167 -400 0
399 547 -691 -400 0
399 -547 691 -400 0
-399 400 0
-399 547 691 -167 0
-399 -547 -691 -167 0
400 -181 -401 0
400 -181 182 0
-400 181 0
-400 -182 401 0
401 547 -683 0
401 -547 683 0
-401 -547 -683 0
-401 547 683 0
402 -608 313 0
402 -680 318 0
402 -608 -680 0
402 313 318 0
-402 608 -318 0
-402 680 -313 0
403 -404 -409 -417 -421 0
-403 421 0
-403 404 0
-403 417 0
-403 409 0
404 130 -406 0
404 124 -406 0
404 -405 -406 0
-404 406 0
-404 -124 -130 405 0
405 -681 -682 0
-405 681 0
-405 682 0
406 702 407 0
406 -702 -407 0
406 530 547 407 0
-406 702 -407 0
-406 -530 -702 407 0
-406 -547 -702 407 0
407 -546 -547 0
407 -547 -651 -408 0
-407 547 0
-407 546 651 0
-407 546 408 0
408 649 650 0
-408 -649 0
-408 -650 0
409 -410 -411 -413 -415 0
-409 415 0
-409 410 0
-409 413 0
-409 411 0
410 366 367 0
410 618 672 0
410 672 367 0
410 618 366 0
-410 -672 -366 0
-410 -618 -367 0
411 -131 412 0
411 -135 412 0
411 616 412 0
-411 -412 0
-411 -616 131 135 0
412 -526 547 -692 0
412 -547 -692 704 0
-412 692 0
-412 -547 -704 0
-412 526 547 0
413 372 414 0
413 675 703 0
413 703 414 0
413 675 372 0
-413 -703 -372 0
-413 -675 -414 0
414 -522 545 0
414 538 -545 0
-414 -538 -545 0
-414 522 545 0
415 414 416 0
415 622 624 0
415 624 416 0
415 622 414 0
-415 -624 -414 0
-415 -622 -416 0
416 -522 545 0
416 536 -545 0
-416 -536 -545 0
-416 522 545 0
417 416 418 -419 0
417 673 418 -419 0
-417 419 0
-417 -418 0
-417 -673 -416 0
418 -691 117 169 0
418 -691 169 339 0
-418 691 0
-418 -169 0
-418 -117 -339 0
419 705 420 0
419 328 420 0
-419 -420 0
-419 -705 -328 0
420 -528 547 -612 0
420 -547 574 -612 0
-420 612 0
-420 -547 -574 0
-420 528 547 0
421 -187 422 0
421 -399 422 0
421 667 422 0
-421 -422 0
-421 -667 187 399 0
422 -681 123 131 0
422 -681 131 190 0
-422 681 0
-422 -131 0
-422 -123 -190 0
423 -614 -169 -426 0
423 614 424 -426 0
423 -614 -424 -426 0
-423 426 0
-423 614 -424 0
-423 -614 169 424 0
424 -547 -564 -425 0
-424 547 0
-424 564 0
-424 425 0
425 614 -38 0
425 -614 38 0
-425 -614 -38 0
-425 614 38 0
426 -654 427 -428 0
426 654 427 428 0
426 -654 -233 427 0
-426 -427 0
-426 654 -428 0
-426 -654 233 428 0
427 -652 233 236 0
-427 652 0
-427 -236 0
-427 -233 0
428 -181 116 0
-428 181 0
-428 -116 0
429 -694 -430 -438 0
429 240 -430 -438 0
-429 438 0
-429 430 0
-429 694 -240 0
430 -431 -433 -435 -436 0
-430 436 0
-430 431 0
-430 435 0
-430 433 0
431 -655 266 0
431 -666 432 0
431 -655 -666 0
431 266 432 0
-431 655 -432 0
-431 666 -266 0
432 -183 138 0
-432 183 0
-432 -138 0
433 17 434 0
433 -606 434 0
433 135 434 0
-433 -434 0
-433 606 -17 -135 0
434 -655 233 432 0
-434 655 0
-434 -432 0
-434 -233 0
435 -656 281 0
435 -697 288 0
435 -656 -697 0
435 281 288 0
-435 656 -288 0
-435 697 -281 0
436 -600 437 0
436 123 159 0
436 159 437 0
436 -600 123 0
-436 -123 -437 0
-436 600 -159 0
437 676 -248 0
-437 -676 0
-437 248 0
438 -688 -439 440 0
438 688 439 440 0
438 -688 -169 440 0
-438 -440 0
-438 688 -439 0
-438 -688 169 439 0
439 -547 -185 0
-439 547 0
-439 185 0
440 -699 88 272 0
-440 699 0
-440 -272 0
-440 -88 0
441 -639 -150 -445 0
441 639 442 -445 0
441 -639 -442 -445 0
-441 445 0
-441 639 -442 0
-441 -639 150 442 0
442 -595 -443 0
442 -595 13 -444 0
-442 595 0
-442 -13 443 0
-442 443 444 0
443 -562 563 -37 0
443 -562 -563 37 0
-443 562 0
-443 -563 -37 0
-443 563 37 0
444 552 -560 0
-444 -552 0
-444 560 0
445 -684 446 -458 0
445 684 446 458 0
445 -684 -169 446 0
-445 -446 0
-445 684 -458 0
-445 -684 169 458 0
446 447 448 0
446 447 -452 -454 0
-446 -447 0
-446 -448 452 0
-446 -448 454 0
447 650 703 0
447 650 -651 0
447 649 650 0
-447 -650 0
-447 -649 651 -703 0
448 -181 449 0
-448 181 0
-448 -449 0
449 -125 -226 -450 0
-449 125 0
-449 226 0
-449 450 0
450 -124 -184 -401 -451 0
-450 451 0
-450 124 0
-450 401 0
-450 184 0
451 -676 -678 -681 -682 0
-451 682 0
-451 676 0
-451 681 0
-451 678 0
452 684 -167 -453 0
452 -684 -167 453 0
-452 167 0
-452 -684 -453 0
-452 684 453 0
453 -685 -219 0
-453 685 0
-453 219 0
454 -192 -208 -218 -455 0
-454 455 0
-454 192 0
-454 218 0
-454 208 0
455 -117 -185 -457 0
455 -185 -456 -457 0
-455 457 0
-455 185 0
-455 117 456 0
456 547 -691 0
456 -547 691 0
-456 -547 -691 0
-456 547 691 0
457 -689 -704 -268 0
-457 689 0
-457 704 0
-457 268 0
458 -547 -452 0
-458 547 0
-458 452 0
459 651 -460 0
459 -651 705 -408 0
-459 -651 -705 0
-459 651 460 0
-459 -651 408 0
460 -650 -449 -461 0
-460 650 0
-460 449 0
-460 461 0
461 670 -116 -462 -463 0
461 -670 116 -462 -463 0
-461 463 0
-461 670 116 0
-461 462 0
-461 -670 -116 0
462 -671 675 -137 173 0
462 671 -675 137 -173 0
462 671 675 137 173 0
462 -671 -675 -137 -173 0
-462 -671 137 0
-462 671 -137 0
-462 675 -173 0
-462 -675 173 0
463 -669 241 464 -465 0
463 669 -241 464 -465 0
-463 465 0
-463 669 241 0
-463 -464 0
-463 -669 -241 0
464 668 -237 0
464 -668 237 0
-464 -668 -237 0
-464 668 237 0
465 -674 -273 -466 0
465 674 273 -466 0
-465 466 0
-465 -674 273 0
-465 674 -273 0
466 -672 673 156 -282 0
466 -672 -673 -156 -282 0
466 672 673 156 282 0
466 672 -673 -156 282 0
-466 672 -282 0
-466 -672 282 0
-466 -673 156 0
-466 673 -156 0
467 660 -468 0
467 -660 187 468 0
-467 -187 468 0
-467 -660 -468 0
-467 660 468 0
468 -181 -452 0
468 -181 -182 469 0
-468 181 0
-468 182 452 0
-468 -469 452 0
469 -676 -248 0
469 676 248 0
-469 676 -248 0
-469 -676 248 0
470 -471 -477 -482 -486 0
-470 486 0
-470 471 0
-470 482 0
-470 477 0
471 -661 -472 473 0
471 661 472 473 0
471 -661 -187 473 0
-471 -473 0
-471 661 -472 0
-471 -661 187 472 0
472 -181 -218 0
472 -181 -125 -182 0
-472 181 0
-472 125 218 0
-472 182 218 0
473 640 -474 0
-473 -640 0
-473 474 0
474 -595 -475 0
474 -565 -595 -425 0
-474 595 0
-474 425 475 0
-474 565 475 0
475 554 -560 -476 0
-475 476 0
-475 560 0
-475 -554 0
476 604 -15 0
476 -604 15 0
-476 -604 -15 0
-476 604 15 0
477 -551 -478 481 0
477 143 -478 481 0
-477 478 0
-477 -481 0
-477 551 -143 0
478 255 479 0
478 -150 479 0
478 641 479 0
-478 -479 0
-478 -641 150 -255 0
479 613 -480 0
-479 -613 0
-479 480 0
480 -547 -29 0
-480 547 0
-480 29 0
481 -633 199 252 0
-481 633 0
-481 -252 0
-481 -199 0
482 204 483 -484 0
482 -596 483 -484 0
-482 484 0
-482 -483 0
-482 596 -204 0
483 -613 169 480 0
-483 613 0
-483 -480 0
-483 -169 0
484 -199 485 0
484 -249 485 0
484 631 485 0
-484 -485 0
-484 -631 199 249 0
485 632 -224 0
-485 -632 0
-485 224 0
486 640 -487 0
486 -150 -487 0
486 -474 -487 0
-486 487 0
-486 -640 150 474 0
487 -653 -488 -491 0
487 -233 -488 491 0
487 653 -488 491 0
-487 488 0
-487 653 -491 0
-487 -653 233 491 0
488 -634 489 -490 0
488 634 489 490 0
488 -634 -199 489 0
-488 -489 0
-488 634 -490 0
-488 -634 199 490 0
489 597 -145 0
-489 -597 0
-489 145 0
490 -595 52 0
-490 595 0
-490 -52 0
491 -181 241 0
-491 181 0
-491 -241 0
492 -10 -79 -493 0
-492 10 0
-492 79 0
-492 493 0
493 -540 -544 0
493 521 544 -627 0
-493 544 627 0
-493 540 -544 0
-493 -521 544 0
494 181 448 -495 0
494 448 -461 -495 0
-494 495 0
-494 -448 0
-494 -181 461 0
495 705 496 0
495 -651 496 0
495 408 496 0
-495 -496 0
-495 651 -705 -408 0
496 -649 650 651 703 0
-496 -703 0
-496 -651 0
-496 649 0
-496 -650 0
497 -100 -101 0
-497 100 0
-497 101 0
498 -580 583 499 -500 0
498 -580 -583 -499 -500 0
498 580 583 499 500 0
498 580 -583 -499 500 0
-498 580 -500 0
-498 -580 500 0
-498 -583 499 0
-498 583 -499 0
499 -82 200 0
-499 82 0
-499 -200 0
500 -82 203 0
-500 82 0
-500 -203 0
501 -579 584 -502 503 0
501 579 -584 502 -503 0
501 579 584 502 503 0
501 -579 -584 -502 -503 0
-501 -579 502 0
-501 579 -502 0
-501 584 -503 0
-501 -584 503 0
502 -82 142 0
-502 82 0
-502 -142 0
503 -82 158 0
-503 82 0
-503 -158 0
504 581 505 -506 -516 0
504 -581 -505 -506 -516 0
-504 516 0
-504 -581 505 0
-504 506 0
-504 581 -505 0
505 -82 144 0
-505 82 0
-505 -144 0
506 6 507 -512 0
506 -6 507 -509 0
-506 -507 0
-506 -6 509 0
-506 6 512 0
507 -625 79 -508 0
507 625 79 508 0
-507 -79 0
-507 -625 508 0
-507 625 -508 0
508 -10 493 0
-508 10 0
-508 -493 0
509 -569 -570 -574 -510 0
-509 510 0
-509 569 0
-509 574 0
-509 570 0
510 -555 -556 -511 0
-510 555 0
-510 556 0
-510 511 0
511 -559 -561 -565 -566 0
-511 566 0
-511 559 0
-511 565 0
-511 561 0
512 552 555 -513 -514 0
-512 -552 0
-512 514 0
-512 513 0
-512 -555 0
513 556 557 559 561 0
-513 -561 0
-513 -559 0
-513 -556 0
-513 -557 0
514 570 571 589 -515 0
-514 515 0
-514 -589 0
-514 -570 0
-514 -571 0
515 565 566 567 569 0
-515 -569 0
-515 -567 0
-515 -565 0
-515 -566 0
516 -582 586 -517 518 0
516 582 -586 517 -518 0
516 582 586 517 518 0
516 -582 -586 -517 -518 0
-516 -582 517 0
-516 582 -517 0
-516 586 -518 0
-516 -586 518 0
517 -82 254 0
-517 82 0
-517 -254 0
518 -82 285 0
-518 82 0
-518 -285 0
864 0
2 3 0
-2 -3 0
2 0

